c 3 - XORSAT
p cnf 10 40
-6 -9 -10 0
-6 9 10 0
6 -9 10 0
6 9 -10 0
-4 -9 -10 0
-4 9 10 0
4 -9 10 0
4 9 -10 0
2 5 6 0
-2 -5 6 0
-2 5 -6 0
2 -5 -6 0
-1 -7 -8 0
-1 7 8 0
1 -7 8 0
1 7 -8 0
-1 -2 -3 0
-1 2 3 0
1 -2 3 0
1 2 -3 0
-1 -4 -6 0
-1 4 6 0
1 -4 6 0
1 4 -6 0
5 8 10 0
-5 -8 10 0
-5 8 -10 0
5 -8 -10 0
7 8 9 0
-7 -8 9 0
-7 8 -9 0
7 -8 -9 0
-3 -5 -7 0
-3 5 7 0
3 -5 7 0
3 5 -7 0
-2 -4 -3 0
-2 4 3 0
2 -4 3 0
2 4 -3 0
